instances/shortest_path/discrete/shortest_path_8_17.lp
\ Model nohadani_8_17
\ LP format - for model browsing. Use MPS format to capture full model detail.
\ Signature: 0x229cff0c87735314
Minimize
  32.20248437620923 y[0,1] + 58.309518948453 y[0,2]
   + 16.49242250247064 y[0,3] + 23.85372088375313 y[0,4]
   + 24.4131112314674 y[0,5] + 15.13274595042156 y[0,6]
   + 32.20248437620923 y[1,0] + 26.24880949681338 y[1,2]
   + 25.07987240796891 y[1,3] + 28.46049894151541 y[1,4]
   + 16.15549442140351 y[1,5] + 18.43908891458577 y[1,6]
   + 46.48655719667784 y[1,7] + 58.309518948453 y[2,0]
   + 26.24880949681338 y[2,1] + 50.35871324805669 y[2,3]
   + 48.79549159502341 y[2,4] + 40.04996878900157 y[2,5]
   + 43.82921400162225 y[2,6] + 20.24845673131659 y[2,7]
   + 16.49242250247064 y[3,0] + 25.07987240796891 y[3,1]
   + 50.35871324805669 y[3,2] + 33.12099032335839 y[3,4]
   + 10.77032961426901 y[3,5] + 17.80449381476486 y[3,6]
   + 23.85372088375313 y[4,0] + 28.46049894151541 y[4,1]
   + 48.79549159502341 y[4,2] + 33.12099032335839 y[4,3]
   + 33.54101966249684 y[4,5] + 15.8113883008419 y[4,6]
   + 24.4131112314674 y[5,0] + 16.15549442140351 y[5,1]
   + 40.04996878900157 y[5,2] + 10.77032961426901 y[5,3]
   + 33.54101966249684 y[5,4] + 18.02775637731995 y[5,6]
   + 15.13274595042156 y[6,0] + 18.43908891458577 y[6,1]
   + 43.82921400162225 y[6,2] + 17.80449381476486 y[6,3]
   + 15.8113883008419 y[6,4] + 18.02775637731995 y[6,5]
   + 46.48655719667784 y[7,1] + 20.24845673131659 y[7,2] + x[0,1] + x[0,2]
   + x[0,3] + x[0,4] + x[0,5] + x[0,6] + x[1,0] + x[1,2] + x[1,3] + x[1,4]
   + x[1,5] + x[1,6] + x[1,7] + x[2,0] + x[2,1] + x[2,3] + x[2,4] + x[2,5]
   + x[2,6] + x[2,7] + x[3,0] + x[3,1] + x[3,2] + x[3,4] + x[3,5] + x[3,6]
   + x[4,0] + x[4,1] + x[4,2] + x[4,3] + x[4,5] + x[4,6] + x[5,0] + x[5,1]
   + x[5,2] + x[5,3] + x[5,4] + x[5,6] + x[6,0] + x[6,1] + x[6,2] + x[6,3]
   + x[6,4] + x[6,5] + x[7,1] + x[7,2] + 3.220248437620924 r[0,1]
   + 5.830951894845301 r[0,2] + 1.649242250247064 r[0,3]
   + 2.385372088375313 r[0,4] + 2.441311123146741 r[0,5]
   + 1.513274595042156 r[0,6] + 3.220248437620924 r[1,0]
   + 2.624880949681338 r[1,2] + 2.507987240796891 r[1,3]
   + 2.846049894151542 r[1,4] + 1.615549442140351 r[1,5]
   + 1.843908891458578 r[1,6] + 4.648655719667784 r[1,7]
   + 5.830951894845301 r[2,0] + 2.624880949681338 r[2,1]
   + 5.035871324805669 r[2,3] + 4.879549159502341 r[2,4]
   + 4.004996878900157 r[2,5] + 4.382921400162226 r[2,6]
   + 2.024845673131659 r[2,7] + 1.649242250247064 r[3,0]
   + 2.507987240796891 r[3,1] + 5.035871324805669 r[3,2]
   + 3.312099032335839 r[3,4] + 1.077032961426901 r[3,5]
   + 1.780449381476486 r[3,6] + 2.385372088375313 r[4,0]
   + 2.846049894151542 r[4,1] + 4.879549159502341 r[4,2]
   + 3.312099032335839 r[4,3] + 3.354101966249685 r[4,5]
   + 1.58113883008419 r[4,6] + 2.441311123146741 r[5,0]
   + 1.615549442140351 r[5,1] + 4.004996878900157 r[5,2]
   + 1.077032961426901 r[5,3] + 3.354101966249685 r[5,4]
   + 1.802775637731995 r[5,6] + 1.513274595042156 r[6,0]
   + 1.843908891458578 r[6,1] + 4.382921400162226 r[6,2]
   + 1.780449381476486 r[6,3] + 1.58113883008419 r[6,4]
   + 1.802775637731995 r[6,5] + 4.648655719667784 r[7,1]
   + 2.024845673131659 r[7,2]
Subject To
 flow_cons_inner_nodes[1]: y[0,1] - y[1,0] - y[1,2] - y[1,3] - y[1,4]
   - y[1,5] - y[1,6] - y[1,7] + y[2,1] + y[3,1] + y[4,1] + y[5,1] + y[6,1]
   + y[7,1] = 0
 flow_cons_inner_nodes[2]: y[0,2] + y[1,2] - y[2,0] - y[2,1] - y[2,3]
   - y[2,4] - y[2,5] - y[2,6] - y[2,7] + y[3,2] + y[4,2] + y[5,2] + y[6,2]
   + y[7,2] = 0
 flow_cons_inner_nodes[3]: y[0,3] + y[1,3] + y[2,3] - y[3,0] - y[3,1]
   - y[3,2] - y[3,4] - y[3,5] - y[3,6] + y[4,3] + y[5,3] + y[6,3] = 0
 flow_cons_inner_nodes[4]: y[0,4] + y[1,4] + y[2,4] + y[3,4] - y[4,0]
   - y[4,1] - y[4,2] - y[4,3] - y[4,5] - y[4,6] + y[5,4] + y[6,4] = 0
 flow_cons_inner_nodes[5]: y[0,5] + y[1,5] + y[2,5] + y[3,5] + y[4,5]
   - y[5,0] - y[5,1] - y[5,2] - y[5,3] - y[5,4] - y[5,6] + y[6,5] = 0
 flow_cons_inner_nodes[6]: y[0,6] + y[1,6] + y[2,6] + y[3,6] + y[4,6]
   + y[5,6] - y[6,0] - y[6,1] - y[6,2] - y[6,3] - y[6,4] - y[6,5] = 0
 flow_cons_source: y[0,1] + y[0,2] + y[0,3] + y[0,4] + y[0,5] + y[0,6]
   - y[1,0] - y[2,0] - y[3,0] - y[4,0] - y[5,0] - y[6,0] = 1
 flow_cons_target: y[1,7] + y[2,7] - y[7,1] - y[7,2] = 1
 primal_lower: 2.093655781030875 x[0,1] + 2.793187972059393 x[0,2]
   + 3.464152454962898 x[0,3] + 2.940282142428182 x[0,4]
   + 1.856952226809111 x[0,5] + 3.955353074461204 x[0,6]
   + 0.5638415743823959 x[1,0] + 2.260847307027993 x[1,2]
   + 2.942718650731447 x[1,3] + 3.284542948652421 x[1,4]
   + 1.232705555147851 x[1,5] + 3.735959490904314 x[1,6]
   + 4.424576060062805 x[1,7] + 2.402959621937131 x[2,0]
   + 0.494379130973873 x[2,1] + 0.30948047993858 x[2,3]
   + 3.105973361626703 x[2,4] + 3.406009499782408 x[2,5]
   + 2.403789983104072 x[2,6] + 2.161844148402285 x[2,7]
   + 2.282099521808507 x[3,0] + 4.107268055158856 x[3,1]
   + 1.574673851811168 x[3,2] + 0.927745341514185 x[3,4]
   + 2.209676557951791 x[3,5] + 1.12845506090549 x[3,6]
   + 3.570014798813689 x[4,0] + 0.5416345087362727 x[4,1]
   + 0.5991161833758742 x[4,2] + 3.683268206763577 x[4,3]
   + 0.2858732012667425 x[4,5] + 4.036126665813066 x[4,6]
   + 1.636414245974858 x[5,0] + 1.398971421018733 x[5,1]
   + 2.639616588162164 x[5,2] + 0.9546874446113448 x[5,3]
   + 0.3365542131482488 x[5,4] + 0.81814288803659 x[5,6]
   + 2.409036402829463 x[6,0] + 1.759981416612926 x[6,1]
   + 0.3381824056154838 x[6,2] + 1.92865651926111 x[6,3]
   + 0.0842690241066491 x[6,4] + 4.512838458679099 x[6,5]
   + 2.067881539568283 x[7,1] + 1.40233199873943 x[7,2] + 21 u[0,1]
   + 46 u[0,2] + 92 u[0,3] + 93 u[0,4] + 86 u[0,5] + 15 u[0,6] + 27 u[1,0]
   + 29 u[1,2] + 83 u[1,3] + 68 u[1,4] + 21 u[1,5] + 85 u[1,6] + 94 u[1,7]
   + 30 u[2,0] + 86 u[2,1] + 98 u[2,3] + 59 u[2,4] + 10 u[2,5] + 95 u[2,6]
   + 4 u[2,7] + 35 u[3,0] + 33 u[3,1] + 38 u[3,2] + 4 u[3,4] + 54 u[3,5]
   + 14 u[3,6] + 96 u[4,0] + 21 u[4,1] + 43 u[4,2] + 9 u[4,3] + 35 u[4,5]
   + 81 u[4,6] + 61 u[5,0] + 47 u[5,1] + 98 u[5,2] + 59 u[5,3] + 42 u[5,4]
   + 6 u[5,6] + 22 u[6,0] + 36 u[6,1] + 93 u[6,2] + 23 u[6,3] + 20 u[6,4]
   + 71 u[6,5] + 61 u[7,1] + 52 u[7,2] <= 208
 mccormick1[0,1]: - u[0,1] + r[0,1] <= 0
 mccormick1[0,2]: - u[0,2] + r[0,2] <= 0
 mccormick1[0,3]: - u[0,3] + r[0,3] <= 0
 mccormick1[0,4]: - u[0,4] + r[0,4] <= 0
 mccormick1[0,5]: - u[0,5] + r[0,5] <= 0
 mccormick1[0,6]: - u[0,6] + r[0,6] <= 0
 mccormick1[1,0]: - u[1,0] + r[1,0] <= 0
 mccormick1[1,2]: - u[1,2] + r[1,2] <= 0
 mccormick1[1,3]: - u[1,3] + r[1,3] <= 0
 mccormick1[1,4]: - u[1,4] + r[1,4] <= 0
 mccormick1[1,5]: - u[1,5] + r[1,5] <= 0
 mccormick1[1,6]: - u[1,6] + r[1,6] <= 0
 mccormick1[1,7]: - u[1,7] + r[1,7] <= 0
 mccormick1[2,0]: - u[2,0] + r[2,0] <= 0
 mccormick1[2,1]: - u[2,1] + r[2,1] <= 0
 mccormick1[2,3]: - u[2,3] + r[2,3] <= 0
 mccormick1[2,4]: - u[2,4] + r[2,4] <= 0
 mccormick1[2,5]: - u[2,5] + r[2,5] <= 0
 mccormick1[2,6]: - u[2,6] + r[2,6] <= 0
 mccormick1[2,7]: - u[2,7] + r[2,7] <= 0
 mccormick1[3,0]: - u[3,0] + r[3,0] <= 0
 mccormick1[3,1]: - u[3,1] + r[3,1] <= 0
 mccormick1[3,2]: - u[3,2] + r[3,2] <= 0
 mccormick1[3,4]: - u[3,4] + r[3,4] <= 0
 mccormick1[3,5]: - u[3,5] + r[3,5] <= 0
 mccormick1[3,6]: - u[3,6] + r[3,6] <= 0
 mccormick1[4,0]: - u[4,0] + r[4,0] <= 0
 mccormick1[4,1]: - u[4,1] + r[4,1] <= 0
 mccormick1[4,2]: - u[4,2] + r[4,2] <= 0
 mccormick1[4,3]: - u[4,3] + r[4,3] <= 0
 mccormick1[4,5]: - u[4,5] + r[4,5] <= 0
 mccormick1[4,6]: - u[4,6] + r[4,6] <= 0
 mccormick1[5,0]: - u[5,0] + r[5,0] <= 0
 mccormick1[5,1]: - u[5,1] + r[5,1] <= 0
 mccormick1[5,2]: - u[5,2] + r[5,2] <= 0
 mccormick1[5,3]: - u[5,3] + r[5,3] <= 0
 mccormick1[5,4]: - u[5,4] + r[5,4] <= 0
 mccormick1[5,6]: - u[5,6] + r[5,6] <= 0
 mccormick1[6,0]: - u[6,0] + r[6,0] <= 0
 mccormick1[6,1]: - u[6,1] + r[6,1] <= 0
 mccormick1[6,2]: - u[6,2] + r[6,2] <= 0
 mccormick1[6,3]: - u[6,3] + r[6,3] <= 0
 mccormick1[6,4]: - u[6,4] + r[6,4] <= 0
 mccormick1[6,5]: - u[6,5] + r[6,5] <= 0
 mccormick1[7,1]: - u[7,1] + r[7,1] <= 0
 mccormick1[7,2]: - u[7,2] + r[7,2] <= 0
 mccormick2[0,1]: - y[0,1] + r[0,1] <= 0
 mccormick2[0,2]: - y[0,2] + r[0,2] <= 0
 mccormick2[0,3]: - y[0,3] + r[0,3] <= 0
 mccormick2[0,4]: - y[0,4] + r[0,4] <= 0
 mccormick2[0,5]: - y[0,5] + r[0,5] <= 0
 mccormick2[0,6]: - y[0,6] + r[0,6] <= 0
 mccormick2[1,0]: - y[1,0] + r[1,0] <= 0
 mccormick2[1,2]: - y[1,2] + r[1,2] <= 0
 mccormick2[1,3]: - y[1,3] + r[1,3] <= 0
 mccormick2[1,4]: - y[1,4] + r[1,4] <= 0
 mccormick2[1,5]: - y[1,5] + r[1,5] <= 0
 mccormick2[1,6]: - y[1,6] + r[1,6] <= 0
 mccormick2[1,7]: - y[1,7] + r[1,7] <= 0
 mccormick2[2,0]: - y[2,0] + r[2,0] <= 0
 mccormick2[2,1]: - y[2,1] + r[2,1] <= 0
 mccormick2[2,3]: - y[2,3] + r[2,3] <= 0
 mccormick2[2,4]: - y[2,4] + r[2,4] <= 0
 mccormick2[2,5]: - y[2,5] + r[2,5] <= 0
 mccormick2[2,6]: - y[2,6] + r[2,6] <= 0
 mccormick2[2,7]: - y[2,7] + r[2,7] <= 0
 mccormick2[3,0]: - y[3,0] + r[3,0] <= 0
 mccormick2[3,1]: - y[3,1] + r[3,1] <= 0
 mccormick2[3,2]: - y[3,2] + r[3,2] <= 0
 mccormick2[3,4]: - y[3,4] + r[3,4] <= 0
 mccormick2[3,5]: - y[3,5] + r[3,5] <= 0
 mccormick2[3,6]: - y[3,6] + r[3,6] <= 0
 mccormick2[4,0]: - y[4,0] + r[4,0] <= 0
 mccormick2[4,1]: - y[4,1] + r[4,1] <= 0
 mccormick2[4,2]: - y[4,2] + r[4,2] <= 0
 mccormick2[4,3]: - y[4,3] + r[4,3] <= 0
 mccormick2[4,5]: - y[4,5] + r[4,5] <= 0
 mccormick2[4,6]: - y[4,6] + r[4,6] <= 0
 mccormick2[5,0]: - y[5,0] + r[5,0] <= 0
 mccormick2[5,1]: - y[5,1] + r[5,1] <= 0
 mccormick2[5,2]: - y[5,2] + r[5,2] <= 0
 mccormick2[5,3]: - y[5,3] + r[5,3] <= 0
 mccormick2[5,4]: - y[5,4] + r[5,4] <= 0
 mccormick2[5,6]: - y[5,6] + r[5,6] <= 0
 mccormick2[6,0]: - y[6,0] + r[6,0] <= 0
 mccormick2[6,1]: - y[6,1] + r[6,1] <= 0
 mccormick2[6,2]: - y[6,2] + r[6,2] <= 0
 mccormick2[6,3]: - y[6,3] + r[6,3] <= 0
 mccormick2[6,4]: - y[6,4] + r[6,4] <= 0
 mccormick2[6,5]: - y[6,5] + r[6,5] <= 0
 mccormick2[7,1]: - y[7,1] + r[7,1] <= 0
 mccormick2[7,2]: - y[7,2] + r[7,2] <= 0
 mccormick3[0,1]: - y[0,1] - u[0,1] + r[0,1] >= -1
 mccormick3[0,2]: - y[0,2] - u[0,2] + r[0,2] >= -1
 mccormick3[0,3]: - y[0,3] - u[0,3] + r[0,3] >= -1
 mccormick3[0,4]: - y[0,4] - u[0,4] + r[0,4] >= -1
 mccormick3[0,5]: - y[0,5] - u[0,5] + r[0,5] >= -1
 mccormick3[0,6]: - y[0,6] - u[0,6] + r[0,6] >= -1
 mccormick3[1,0]: - y[1,0] - u[1,0] + r[1,0] >= -1
 mccormick3[1,2]: - y[1,2] - u[1,2] + r[1,2] >= -1
 mccormick3[1,3]: - y[1,3] - u[1,3] + r[1,3] >= -1
 mccormick3[1,4]: - y[1,4] - u[1,4] + r[1,4] >= -1
 mccormick3[1,5]: - y[1,5] - u[1,5] + r[1,5] >= -1
 mccormick3[1,6]: - y[1,6] - u[1,6] + r[1,6] >= -1
 mccormick3[1,7]: - y[1,7] - u[1,7] + r[1,7] >= -1
 mccormick3[2,0]: - y[2,0] - u[2,0] + r[2,0] >= -1
 mccormick3[2,1]: - y[2,1] - u[2,1] + r[2,1] >= -1
 mccormick3[2,3]: - y[2,3] - u[2,3] + r[2,3] >= -1
 mccormick3[2,4]: - y[2,4] - u[2,4] + r[2,4] >= -1
 mccormick3[2,5]: - y[2,5] - u[2,5] + r[2,5] >= -1
 mccormick3[2,6]: - y[2,6] - u[2,6] + r[2,6] >= -1
 mccormick3[2,7]: - y[2,7] - u[2,7] + r[2,7] >= -1
 mccormick3[3,0]: - y[3,0] - u[3,0] + r[3,0] >= -1
 mccormick3[3,1]: - y[3,1] - u[3,1] + r[3,1] >= -1
 mccormick3[3,2]: - y[3,2] - u[3,2] + r[3,2] >= -1
 mccormick3[3,4]: - y[3,4] - u[3,4] + r[3,4] >= -1
 mccormick3[3,5]: - y[3,5] - u[3,5] + r[3,5] >= -1
 mccormick3[3,6]: - y[3,6] - u[3,6] + r[3,6] >= -1
 mccormick3[4,0]: - y[4,0] - u[4,0] + r[4,0] >= -1
 mccormick3[4,1]: - y[4,1] - u[4,1] + r[4,1] >= -1
 mccormick3[4,2]: - y[4,2] - u[4,2] + r[4,2] >= -1
 mccormick3[4,3]: - y[4,3] - u[4,3] + r[4,3] >= -1
 mccormick3[4,5]: - y[4,5] - u[4,5] + r[4,5] >= -1
 mccormick3[4,6]: - y[4,6] - u[4,6] + r[4,6] >= -1
 mccormick3[5,0]: - y[5,0] - u[5,0] + r[5,0] >= -1
 mccormick3[5,1]: - y[5,1] - u[5,1] + r[5,1] >= -1
 mccormick3[5,2]: - y[5,2] - u[5,2] + r[5,2] >= -1
 mccormick3[5,3]: - y[5,3] - u[5,3] + r[5,3] >= -1
 mccormick3[5,4]: - y[5,4] - u[5,4] + r[5,4] >= -1
 mccormick3[5,6]: - y[5,6] - u[5,6] + r[5,6] >= -1
 mccormick3[6,0]: - y[6,0] - u[6,0] + r[6,0] >= -1
 mccormick3[6,1]: - y[6,1] - u[6,1] + r[6,1] >= -1
 mccormick3[6,2]: - y[6,2] - u[6,2] + r[6,2] >= -1
 mccormick3[6,3]: - y[6,3] - u[6,3] + r[6,3] >= -1
 mccormick3[6,4]: - y[6,4] - u[6,4] + r[6,4] >= -1
 mccormick3[6,5]: - y[6,5] - u[6,5] + r[6,5] >= -1
 mccormick3[7,1]: - y[7,1] - u[7,1] + r[7,1] >= -1
 mccormick3[7,2]: - y[7,2] - u[7,2] + r[7,2] >= -1
Bounds
Binaries
 y[0,1] y[0,2] y[0,3] y[0,4] y[0,5] y[0,6] y[1,0] y[1,2] y[1,3] y[1,4]
 y[1,5] y[1,6] y[1,7] y[2,0] y[2,1] y[2,3] y[2,4] y[2,5] y[2,6] y[2,7]
 y[3,0] y[3,1] y[3,2] y[3,4] y[3,5] y[3,6] y[4,0] y[4,1] y[4,2] y[4,3]
 y[4,5] y[4,6] y[5,0] y[5,1] y[5,2] y[5,3] y[5,4] y[5,6] y[6,0] y[6,1]
 y[6,2] y[6,3] y[6,4] y[6,5] y[7,1] y[7,2] x[0,1] x[0,2] x[0,3] x[0,4]
 x[0,5] x[0,6] x[1,0] x[1,2] x[1,3] x[1,4] x[1,5] x[1,6] x[1,7] x[2,0]
 x[2,1] x[2,3] x[2,4] x[2,5] x[2,6] x[2,7] x[3,0] x[3,1] x[3,2] x[3,4]
 x[3,5] x[3,6] x[4,0] x[4,1] x[4,2] x[4,3] x[4,5] x[4,6] x[5,0] x[5,1]
 x[5,2] x[5,3] x[5,4] x[5,6] x[6,0] x[6,1] x[6,2] x[6,3] x[6,4] x[6,5]
 x[7,1] x[7,2] u[0,1] u[0,2] u[0,3] u[0,4] u[0,5] u[0,6] u[1,0] u[1,2]
 u[1,3] u[1,4] u[1,5] u[1,6] u[1,7] u[2,0] u[2,1] u[2,3] u[2,4] u[2,5]
 u[2,6] u[2,7] u[3,0] u[3,1] u[3,2] u[3,4] u[3,5] u[3,6] u[4,0] u[4,1]
 u[4,2] u[4,3] u[4,5] u[4,6] u[5,0] u[5,1] u[5,2] u[5,3] u[5,4] u[5,6]
 u[6,0] u[6,1] u[6,2] u[6,3] u[6,4] u[6,5] u[7,1] u[7,2] r[0,1] r[0,2]
 r[0,3] r[0,4] r[0,5] r[0,6] r[1,0] r[1,2] r[1,3] r[1,4] r[1,5] r[1,6]
 r[1,7] r[2,0] r[2,1] r[2,3] r[2,4] r[2,5] r[2,6] r[2,7] r[3,0] r[3,1]
 r[3,2] r[3,4] r[3,5] r[3,6] r[4,0] r[4,1] r[4,2] r[4,3] r[4,5] r[4,6]
 r[5,0] r[5,1] r[5,2] r[5,3] r[5,4] r[5,6] r[6,0] r[6,1] r[6,2] r[6,3]
 r[6,4] r[6,5] r[7,1] r[7,2]
End
