instances/shortest_path/discrete/shortest_path_8_17.kp
25241
208

[2.093655781030875 2.793187972059393 3.4641524549628984 2.9402821424281815 1.8569522268091105 3.9553530744612035 0.5638415743823959 2.2608473070279933 2.942718650731447 3.2845429486524207 1.2327055551478512 3.7359594909043143 4.4245760600628055 2.402959621937131 0.49437913097387304 0.30948047993858 3.1059733616267033 3.406009499782408 2.403789983104072 2.161844148402285 2.282099521808507 4.107268055158856 1.5746738518111685 0.927745341514185 2.209676557951791 1.1284550609054897 3.5700147988136886 0.5416345087362727 0.5991161833758742 3.683268206763577 0.2858732012667425 4.036126665813066 1.6364142459748583 1.3989714210187332 2.6396165881621636 0.9546874446113448 0.33655421314824885 0.81814288803659 2.4090364028294626 1.7599814166129262 0.3381824056154838 1.9286565192611103 0.08426902410664912 4.5128384586790995 2.0678815395682832 1.4023319987394298]

[21 46 92 93 86 15 27 29 83 68 21 85 94 30 86 98 59 10 95 4 35 33 38 4 54 14 96 21 43 9 35 81 61 47 98 59 42 6 22 36 93 23 20 71 61 52]
